* ENCODING=ISO-8859-1
NAME          CPLEX
ROWS
 N  obj1    
 G  c1      
 G  c2      
 G  c3      
 G  c4      
 G  c5      
 G  c6      
 G  c7      
 G  c8      
 G  c9      
 G  c10     
 G  c11     
 G  c12     
 G  c13     
 G  c14     
 G  c15     
 G  c16     
 G  c17     
 G  c18     
 G  c19     
 G  c20     
 G  c21     
 G  c22     
 G  c23     
 G  c24     
 G  c25     
 G  c26     
 G  c27     
 G  c28     
 G  c29     
 G  c30     
 G  c31     
 G  c32     
 G  c33     
 G  c34     
 G  c35     
 G  c36     
 G  c37     
 G  c38     
 G  c39     
 G  c40     
 G  c41     
 G  c42     
 G  c43     
 G  c44     
 G  c45     
 G  c46     
 G  c47     
 G  c48     
 G  c49     
 G  c50     
 G  c51     
 G  c52     
 G  c53     
 G  c54     
 G  c55     
 G  c56     
 G  c57     
 G  c58     
 G  c59     
 G  c60     
 G  c61     
 G  c62     
 G  c63     
 G  c64     
 G  c65     
 G  c66     
 G  c67     
 G  c68     
 G  c69     
 G  c70     
COLUMNS
    MARK0000  'MARKER'                 'INTORG'
    x1        obj1                            1
    x1        c5                            371
    x1        c21                           190
    x1        c29                           343
    x1        c36                           684
    x1        c40                           808
    x1        c62                           194
    x1        c69                           546
    x2        obj1                            1
    x2        c15                           580
    x2        c16                           163
    x2        c39                           359
    x2        c56                           657
    x3        obj1                            1
    x3        c12                           415
    x3        c32                           352
    x3        c33                           274
    x3        c49                           699
    x3        c59                           502
    x4        obj1                            1
    x4        c11                           442
    x4        c14                           764
    x4        c21                           989
    x4        c22                           523
    x4        c26                           553
    x4        c28                           880
    x4        c31                           937
    x4        c32                           250
    x4        c40                           923
    x4        c41                           530
    x4        c43                           806
    x4        c54                           389
    x4        c65                           844
    x4        c67                           820
    x5        obj1                            1
    x5        c8                            335
    x5        c9                            223
    x5        c15                           402
    x5        c36                           919
    x5        c38                           799
    x5        c56                           677
    x5        c59                           992
    x5        c66                           150
    x6        obj1                            1
    x6        c5                            606
    x6        c16                           821
    x6        c22                           459
    x6        c30                           108
    x6        c46                           703
    x6        c57                           121
    x6        c58                           307
    x6        c66                           683
    x7        obj1                            1
    x7        c5                            473
    x7        c15                           149
    x7        c18                           181
    x7        c25                           762
    x7        c34                           268
    x7        c38                           864
    x7        c47                           876
    x7        c50                           265
    x7        c59                           864
    x7        c69                           936
    x8        obj1                            1
    x8        c1                            884
    x8        c4                            744
    x8        c13                           842
    x8        c16                           298
    x8        c23                           652
    x8        c38                           241
    x8        c42                           324
    x8        c46                           618
    x8        c60                           384
    x9        obj1                            1
    x9        c2                            327
    x9        c9                            431
    x9        c11                           621
    x9        c18                           404
    x9        c24                           512
    x9        c37                           300
    x9        c41                           114
    x9        c46                           549
    x9        c52                           755
    x9        c55                           596
    x9        c65                           265
    x9        c66                           468
    x10       obj1                            1
    x10       c1                            919
    x10       c9                            609
    x10       c13                           141
    x10       c16                           393
    x10       c22                           254
    x10       c31                           434
    x10       c33                           695
    x10       c40                           123
    x10       c43                           858
    x10       c48                           955
    x10       c53                           313
    x10       c55                           552
    x10       c68                           276
    x11       obj1                            1
    x11       c31                           562
    x11       c40                           900
    x11       c41                           496
    x11       c43                           749
    x11       c50                           302
    x11       c52                           874
    x11       c66                           200
    x11       c70                           448
    x12       obj1                            1
    x12       c6                            312
    x12       c10                           791
    x12       c14                           860
    x12       c18                           291
    x12       c20                           981
    x12       c21                           338
    x12       c34                           990
    x12       c47                           299
    x12       c52                           228
    x12       c54                           186
    x13       obj1                            1
    x13       c4                            754
    x13       c6                            344
    x13       c19                           711
    x13       c45                           352
    x14       obj1                            1
    x14       c5                            408
    x14       c25                           747
    x14       c28                           266
    x14       c45                           549
    x14       c54                           666
    x15       obj1                            1
    x15       c2                            466
    x15       c14                           798
    x15       c15                           878
    x15       c24                           939
    x15       c28                           681
    x15       c33                           403
    x15       c62                           622
    x15       c67                           978
    x16       obj1                            1
    x16       c7                            418
    x16       c14                           555
    x16       c15                           349
    x16       c16                           705
    x16       c19                           859
    x16       c23                           491
    x16       c27                           853
    x16       c51                           846
    x16       c65                           354
    x17       obj1                            1
    x17       c2                            984
    x17       c14                           867
    x17       c19                           463
    x17       c26                           834
    x17       c28                           356
    x17       c32                           898
    x17       c51                           579
    x17       c56                           284
    x18       obj1                            1
    x18       c20                           358
    x18       c26                           249
    x18       c28                           856
    x18       c31                           442
    x18       c39                           379
    x18       c49                           496
    x18       c53                           704
    x18       c63                           275
    x19       obj1                            1
    x19       c7                            442
    x19       c26                           827
    x19       c32                           570
    x19       c46                           568
    x19       c53                           594
    x19       c66                           922
    x19       c68                           474
    x20       obj1                            1
    x20       c4                            386
    x20       c14                           772
    x20       c35                           353
    x20       c36                           358
    x20       c48                           499
    x21       obj1                            1
    x21       c3                            434
    x21       c20                           270
    x21       c25                           434
    x21       c26                           994
    x21       c28                           750
    x21       c30                           905
    x21       c42                           766
    x21       c65                           607
    x22       obj1                            1
    x22       c2                            669
    x22       c13                           332
    x22       c35                           855
    x22       c36                           418
    x22       c37                           782
    x22       c40                           926
    x22       c42                           774
    x22       c43                           636
    x22       c45                           820
    x22       c46                           153
    x22       c49                           593
    x22       c63                           252
    x22       c69                           926
    x23       obj1                            1
    x23       c2                            441
    x23       c3                            517
    x23       c11                           863
    x23       c16                           159
    x23       c17                           689
    x23       c23                           259
    x23       c24                           639
    x23       c26                           824
    x23       c29                           412
    x23       c33                           162
    x23       c34                           184
    x23       c53                           664
    x24       obj1                            1
    x24       c25                           128
    x24       c27                           660
    x24       c51                           897
    x24       c57                           210
    x24       c63                           315
    x25       obj1                            1
    x25       c2                            768
    x25       c8                            945
    x25       c17                           961
    x25       c18                           593
    x25       c22                           645
    x25       c40                           776
    x25       c42                           712
    x25       c59                           832
    x26       obj1                            1
    x26       c18                           408
    x26       c48                           269
    x26       c57                           518
    x26       c67                           922
    x27       obj1                            1
    x27       c4                            182
    x27       c21                           597
    x27       c23                           688
    x27       c31                           157
    x27       c38                           234
    x27       c41                           951
    x27       c59                           962
    x28       obj1                            1
    x28       c2                            234
    x28       c3                            238
    x28       c4                           1000
    x28       c8                            319
    x28       c10                           546
    x28       c12                           680
    x28       c19                           368
    x28       c33                           339
    x28       c37                           376
    x28       c43                           114
    x29       obj1                            1
    x29       c13                           153
    x29       c17                           891
    x29       c29                           121
    x29       c38                           391
    x29       c47                           697
    x29       c51                           257
    x29       c52                           697
    x29       c59                           413
    x29       c60                           341
    x29       c64                           733
    x29       c69                           118
    x29       c70                           766
    x30       obj1                            1
    x30       c9                            990
    x30       c10                           320
    x30       c13                           376
    x30       c14                           230
    x30       c15                           867
    x30       c27                           101
    x30       c29                           580
    x30       c32                           640
    x30       c39                           548
    x30       c59                           931
    x30       c60                           535
    x30       c63                           480
    x31       obj1                            1
    x31       c4                            319
    x31       c29                           192
    x31       c31                           512
    x31       c38                           675
    x31       c47                           795
    x31       c65                           242
    x32       obj1                            1
    x32       c13                           947
    x32       c31                           318
    x32       c44                           672
    x32       c46                           272
    x32       c48                           987
    x32       c58                           215
    x32       c60                           367
    x32       c61                           744
    x32       c69                           248
    x32       c70                           707
    x33       obj1                            1
    x33       c10                           362
    x33       c19                           857
    x33       c52                           288
    x33       c55                           482
    x33       c64                           904
    x34       obj1                            1
    x34       c5                            871
    x34       c12                           605
    x34       c19                           848
    x34       c21                           253
    x34       c29                           123
    x34       c39                           715
    x34       c52                           742
    x35       obj1                            1
    x35       c6                            253
    x35       c8                            928
    x35       c24                           438
    x35       c27                           479
    x35       c32                           321
    x35       c53                           209
    x35       c64                           834
    x35       c68                           142
    x36       obj1                            1
    x36       c13                           998
    x36       c60                           865
    x36       c70                           393
    x37       obj1                            1
    x37       c20                           880
    x37       c49                           361
    x37       c58                           777
    x38       obj1                            1
    x38       c16                           709
    x38       c22                           299
    x38       c40                           292
    x38       c44                           996
    x38       c53                           135
    x38       c61                           237
    x38       c66                           972
    x39       obj1                            1
    x39       c18                           585
    x39       c26                           113
    x39       c58                           348
    x40       obj1                            1
    x40       c11                           502
    x40       c16                           751
    x40       c17                           303
    x40       c23                           233
    x40       c27                           312
    x40       c50                           587
    x40       c53                           755
    x40       c59                           363
    x40       c61                           334
    x41       obj1                            1
    x41       c17                           672
    x41       c25                           773
    x41       c27                           549
    x41       c33                           108
    x41       c47                           578
    x41       c50                           368
    x41       c68                           617
    x42       obj1                            1
    x42       c9                            211
    x42       c12                           238
    x42       c13                           873
    x42       c44                           134
    x42       c45                           876
    x42       c55                           703
    x42       c58                           439
    x43       obj1                            1
    x43       c4                            483
    x43       c9                            931
    x43       c36                           499
    x43       c44                           574
    x43       c53                           839
    x43       c55                           864
    x43       c59                           744
    x43       c68                           874
    x44       obj1                            1
    x44       c17                           772
    x44       c21                           697
    x44       c68                           254
    x45       obj1                            1
    x45       c1                            843
    x45       c6                            747
    x45       c10                           899
    x45       c11                           732
    x45       c12                           783
    x45       c21                           694
    x45       c33                           908
    x45       c44                           511
    x45       c51                           807
    x45       c56                           520
    x45       c58                           195
    x45       c63                           513
    x45       c64                           434
    x45       c65                           647
    x46       obj1                            1
    x46       c1                            430
    x46       c2                            338
    x46       c35                           989
    x46       c36                           676
    x46       c55                           873
    x46       c58                           296
    x46       c65                           583
    x47       obj1                            1
    x47       c1                            622
    x47       c7                            674
    x47       c9                            796
    x47       c18                           454
    x47       c30                           833
    x47       c36                           350
    x47       c52                           863
    x48       obj1                            1
    x48       c8                            412
    x48       c10                           909
    x48       c14                           642
    x48       c51                           415
    x48       c69                           945
    x49       obj1                            1
    x49       c1                            396
    x49       c5                            922
    x49       c20                           445
    x49       c21                           589
    x49       c53                           584
    x49       c57                           965
    x49       c63                           162
    x49       c67                           809
    x50       obj1                            1
    x50       c9                            426
    x50       c10                           641
    x50       c14                           181
    x50       c29                           549
    x50       c34                           280
    x50       c41                           986
    x50       c43                           881
    x50       c63                           628
    x50       c66                           565
    x51       obj1                            1
    x51       c1                            249
    x51       c15                           376
    x51       c37                           746
    x51       c38                           451
    x51       c43                           470
    x52       obj1                            1
    x52       c11                           618
    x52       c13                           739
    x52       c22                           544
    x52       c45                           917
    x52       c47                           879
    x52       c61                           736
    x52       c64                           901
    x52       c67                           290
    x52       c68                           928
    x53       obj1                            1
    x53       c11                           813
    x53       c24                           207
    x53       c29                           864
    x53       c31                           506
    x53       c33                           491
    x53       c39                           783
    x53       c42                           532
    x53       c47                           133
    x53       c61                           771
    x53       c65                           344
    x53       c67                           137
    x54       obj1                            1
    x54       c17                           459
    x54       c25                           958
    x54       c26                           842
    x54       c28                           702
    x54       c38                           238
    x54       c59                           979
    x54       c60                           829
    x54       c66                           520
    x55       obj1                            1
    x55       c13                           855
    x55       c14                           926
    x55       c56                           662
    x55       c66                           840
    x55       c68                           810
    x56       obj1                            1
    x56       c9                            771
    x56       c31                           961
    x56       c46                           252
    x56       c53                           420
    x56       c56                           281
    x56       c58                           592
    x56       c68                           610
    x57       obj1                            1
    x57       c2                            786
    x57       c9                            572
    x57       c11                           740
    x57       c41                           920
    x57       c60                           509
    x58       obj1                            1
    x58       c5                            497
    x58       c16                           732
    x58       c28                           419
    x58       c36                           275
    x58       c43                           519
    x58       c62                           966
    x58       c65                           446
    x58       c66                           261
    x59       obj1                            1
    x59       c35                           473
    x59       c40                           483
    x59       c50                           223
    x59       c54                           831
    x59       c64                           414
    x59       c65                           127
    x60       obj1                            1
    x60       c6                            257
    x60       c19                           226
    x60       c30                           577
    x60       c31                           440
    x60       c44                           528
    x60       c60                           857
    x60       c63                           688
    x61       obj1                            1
    x61       c6                            144
    x61       c7                            129
    x61       c27                           289
    x61       c33                           326
    x61       c46                           605
    x61       c63                           557
    x62       obj1                            1
    x62       c5                            699
    x62       c10                           894
    x62       c25                           630
    x62       c56                           582
    x62       c64                           129
    x62       c67                           836
    x63       obj1                            1
    x63       c1                            326
    x63       c16                           505
    x63       c25                           398
    x63       c29                           644
    x63       c35                           937
    x63       c50                           586
    x63       c62                           679
    x63       c69                           711
    x64       obj1                            1
    x64       c6                            882
    x64       c7                            950
    x64       c25                           766
    x64       c26                           321
    x64       c36                           141
    x64       c49                           378
    x64       c54                           548
    x65       obj1                            1
    x65       c6                            561
    x65       c47                           958
    x65       c57                           281
    x65       c64                           764
    x65       c70                           368
    x66       obj1                            1
    x66       c15                           555
    x66       c23                           812
    x66       c26                           345
    x66       c50                           121
    x66       c51                           261
    x67       obj1                            1
    x67       c17                           919
    x67       c21                           553
    x67       c28                           676
    x67       c29                           747
    x67       c34                           794
    x67       c40                           267
    x67       c50                           400
    x67       c68                           517
    x68       obj1                            1
    x68       c3                            721
    x68       c5                            886
    x68       c10                           578
    x68       c28                           644
    x68       c35                           486
    x68       c46                           784
    x68       c61                           350
    x68       c70                           372
    x69       obj1                            1
    x69       c6                            402
    x69       c15                           758
    x69       c18                           644
    x69       c20                           580
    x69       c25                           156
    x69       c32                           124
    x69       c44                           849
    x69       c45                           331
    x69       c64                           503
    x69       c70                           787
    x70       obj1                            1
    x70       c1                            545
    x70       c4                            120
    x70       c12                           538
    x70       c17                           755
    x70       c20                           161
    x70       c43                           240
    x70       c47                           171
    MARK0001  'MARKER'                 'INTEND'
RHS
    rhs       c1                           2607
    rhs       c2                           2507
    rhs       c3                            955
    rhs       c4                           1994
    rhs       c5                           2867
    rhs       c6                           1951
    rhs       c7                           1307
    rhs       c8                           1470
    rhs       c9                           2980
    rhs       c10                          2970
    rhs       c11                          2666
    rhs       c12                          1630
    rhs       c13                          3128
    rhs       c14                          3298
    rhs       c15                          2457
    rhs       c16                          2618
    rhs       c17                          3211
    rhs       c18                          1780
    rhs       c19                          2166
    rhs       c20                          1838
    rhs       c21                          2450
    rhs       c22                          1362
    rhs       c23                          1568
    rhs       c24                          1368
    rhs       c25                          2876
    rhs       c26                          2951
    rhs       c27                          1622
    rhs       c28                          3115
    rhs       c29                          2288
    rhs       c30                          1212
    rhs       c31                          2635
    rhs       c32                          1578
    rhs       c33                          1853
    rhs       c34                          1258
    rhs       c35                          2047
    rhs       c36                          2160
    rhs       c37                          1102
    rhs       c38                          1947
    rhs       c39                          1392
    rhs       c40                          2749
    rhs       c41                          1999
    rhs       c42                          1554
    rhs       c43                          2637
    rhs       c44                          2132
    rhs       c45                          1923
    rhs       c46                          2252
    rhs       c47                          2693
    rhs       c48                          1355
    rhs       c49                          1264
    rhs       c50                          1426
    rhs       c51                          2031
    rhs       c52                          2224
    rhs       c53                          2609
    rhs       c54                          1310
    rhs       c55                          2035
    rhs       c56                          1832
    rhs       c57                          1048
    rhs       c58                          1585
    rhs       c59                          3791
    rhs       c60                          2344
    rhs       c61                          1586
    rhs       c62                          1231
    rhs       c63                          1935
    rhs       c64                          2808
    rhs       c65                          2230
    rhs       c66                          2791
    rhs       c67                          2396
    rhs       c68                          2751
    rhs       c69                          2215
    rhs       c70                          1921
BOUNDS
 LI bnd       x1        0
 LI bnd       x2        0
 LI bnd       x3        0
 LI bnd       x4        0
 LI bnd       x5        0
 LI bnd       x6        0
 LI bnd       x7        0
 LI bnd       x8        0
 LI bnd       x9        0
 LI bnd       x10       0
 LI bnd       x11       0
 LI bnd       x12       0
 LI bnd       x13       0
 LI bnd       x14       0
 LI bnd       x15       0
 LI bnd       x16       0
 LI bnd       x17       0
 LI bnd       x18       0
 LI bnd       x19       0
 LI bnd       x20       0
 LI bnd       x21       0
 LI bnd       x22       0
 LI bnd       x23       0
 LI bnd       x24       0
 LI bnd       x25       0
 LI bnd       x26       0
 LI bnd       x27       0
 LI bnd       x28       0
 LI bnd       x29       0
 LI bnd       x30       0
 LI bnd       x31       0
 LI bnd       x32       0
 LI bnd       x33       0
 LI bnd       x34       0
 LI bnd       x35       0
 LI bnd       x36       0
 LI bnd       x37       0
 LI bnd       x38       0
 LI bnd       x39       0
 LI bnd       x40       0
 LI bnd       x41       0
 LI bnd       x42       0
 LI bnd       x43       0
 LI bnd       x44       0
 LI bnd       x45       0
 LI bnd       x46       0
 LI bnd       x47       0
 LI bnd       x48       0
 LI bnd       x49       0
 LI bnd       x50       0
 LI bnd       x51       0
 LI bnd       x52       0
 LI bnd       x53       0
 LI bnd       x54       0
 LI bnd       x55       0
 LI bnd       x56       0
 LI bnd       x57       0
 LI bnd       x58       0
 LI bnd       x59       0
 LI bnd       x60       0
 LI bnd       x61       0
 LI bnd       x62       0
 LI bnd       x63       0
 LI bnd       x64       0
 LI bnd       x65       0
 LI bnd       x66       0
 LI bnd       x67       0
 LI bnd       x68       0
 LI bnd       x69       0
 LI bnd       x70       0
ENDATA
